NAME  Ti(Cl)(O)
ROWS
 N  R0
 L  R1
 L  R2
 L  R3
 L  R4
 L  R5
 L  R6
 L  R7
 L  R8
 L  R9
 L  R10
 L  R11
 L  R12
 L  R13
 L  R14
 L  R15
 L  R16
 L  R17
 L  R18
 L  R19
 L  R20
 L  R21
 L  R22
 E  R23
 E  R24
 E  R25
 E  R26
 E  R27
 G  main
COLUMNS
    v[0]       R11       1.0000000000
    v[0]       R12       -1.000000000
    v[0]       R23       1.0000000000
    v[0]       R24       1.0000000000
    v[0]       R25       1.0000000000
    v[0]       R26       46.000000000
    v[0]       R27       1.0000000000
    v[0]       main      1.0000000000
    v[2]       R3        1.0000000000
    v[2]       R4        -1.000000000
    v[2]       R24       2.0000000000
    v[2]       R25       2.0000000000
    v[2]       R26       50.000000000
    v[1]       R9        1.0000000000
    v[1]       R10       -1.000000000
    v[1]       R24       2.0000000000
    v[1]       R25       3.0000000000
    v[1]       R26       58.000000000
    absV[8]    R0        50.000000000
    absV[8]    R21       -1.000000000
    absV[8]    R22       -1.000000000
    absV[7]    R0        33.000000000
    absV[7]    R19       -1.000000000
    absV[7]    R20       -1.000000000
    absV[6]    R0        42.000000000
    absV[6]    R1        -1.000000000
    absV[6]    R2        -1.000000000
    absV[5]    R0        50.000000000
    absV[5]    R13       -1.000000000
    absV[5]    R14       -1.000000000
    absV[9]    R0        33.000000000
    absV[9]    R5        -1.000000000
    absV[9]    R6        -1.000000000
    absV[0]    R0        47.000000000
    absV[0]    R11       -1.000000000
    absV[0]    R12       -1.000000000
    v[10]      R17       1.0000000000
    v[10]      R18       -1.000000000
    v[10]      R24       1.0000000000
    v[10]      R25       3.0000000000
    v[10]      R26       40.000000000
    v[10]      R27       1.0000000000
    absV[4]    R0        49.000000000
    absV[4]    R15       -1.000000000
    absV[4]    R16       -1.000000000
    absV[3]    R0        66.000000000
    absV[3]    R7        -1.000000000
    absV[3]    R8        -1.000000000
    absV[2]    R0        50.000000000
    absV[2]    R3        -1.000000000
    absV[2]    R4        -1.000000000
    absV[1]    R0        58.000000000
    absV[1]    R9        -1.000000000
    absV[1]    R10       -1.000000000
    v[3]       R7        1.0000000000
    v[3]       R8        -1.000000000
    v[3]       R24       2.0000000000
    v[3]       R25       4.0000000000
    v[3]       R26       66.000000000
    v[4]       R15       1.0000000000
    v[4]       R16       -1.000000000
    v[4]       R24       1.0000000000
    v[4]       R25       4.0000000000
    v[4]       R26       48.000000000
    v[4]       R27       1.0000000000
    v[5]       R13       1.0000000000
    v[5]       R14       -1.000000000
    v[5]       R24       2.0000000000
    v[5]       R25       2.0000000000
    v[5]       R26       50.000000000
    v[6]       R1        1.0000000000
    v[6]       R2        -1.000000000
    v[6]       R24       2.0000000000
    v[6]       R25       1.0000000000
    v[6]       R26       42.000000000
    v[7]       R19       1.0000000000
    v[7]       R20       -1.000000000
    v[7]       R24       1.0000000000
    v[7]       R25       2.0000000000
    v[7]       R26       32.000000000
    v[7]       R27       1.0000000000
    v[8]       R21       1.0000000000
    v[8]       R22       -1.000000000
    v[8]       R24       2.0000000000
    v[8]       R25       2.0000000000
    v[8]       R26       50.000000000
    v[9]       R5        1.0000000000
    v[9]       R6        -1.000000000
    v[9]       R24       1.0000000000
    v[9]       R25       2.0000000000
    v[9]       R26       32.000000000
    v[9]       R27       1.0000000000
    absV[10]   R0        41.000000000
    absV[10]   R17       -1.000000000
    absV[10]   R18       -1.000000000
RHS
    RHS       main      1.0000000000
BOUNDS
 FR BND       absV[6]
 FR BND       v[6]
 FR BND       absV[2]
 FR BND       v[2]
 FR BND       absV[9]
 FR BND       v[9]
 FR BND       absV[3]
 FR BND       v[3]
 FR BND       absV[1]
 FR BND       v[1]
 FR BND       absV[0]
 FR BND       v[0]
 FR BND       absV[5]
 FR BND       v[5]
 FR BND       absV[4]
 FR BND       v[4]
 FR BND       absV[10]
 FR BND       v[10]
 FR BND       absV[7]
 FR BND       v[7]
 FR BND       absV[8]
 FR BND       v[8]
ENDATA